p tw 88 100
1 2
2 13
3 4
4 5
5 6
6 7
7 8
8 9
9 10
9 74
10 11
10 31
11 12
12 14
13 24
14 15
15 16
16 17
17 18
17 25
18 19
19 20
20 21
21 22
22 23
23 15
24 35
25 26
26 27
27 28
28 29
29 30
30 31
31 32
32 33
33 34
34 36
35 46
36 37
36 5
37 38
38 39
38 5
39 40
40 41
41 42
42 43
42 44
42 45
42 52
42 53
42 60
42 61
42 67
43 44
44 45
45 47
46 57
47 48
48 49
49 50
50 51
51 5
52 53
53 54
54 55
55 56
56 58
57 68
58 59
59 5
60 61
61 62
62 63
63 64
64 65
65 66
66 5
67 69
68 79
69 70
70 71
71 72
72 73
73 5
74 75
75 76
76 77
77 78
78 80
79 88
80 81
81 82
81 86
82 83
83 84
84 85
85 78
86 87
88 3
